experiment/data/lkh-res/Vrp-Set-CMT-n101/Vrp-Set-CMT-n101-lkh/3.lkh1.vrp
NAME : 3
COMMENT : CVRP Instance
TYPE : CVRP
DIMENSION : 101
EDGE_WEIGHT_TYPE : EUC_2D
CAPACITY : 200
NODE_COORD_SECTION
1	3500	3500
2	4100	4900
3	3500	1700
4	5500	4500
5	5500	2000
6	1500	3000
7	2500	3000
8	2000	5000
9	1000	4300
10	5500	6000
11	3000	6000
12	2000	6500
13	5000	3500
14	3000	2500
15	1500	1000
16	3000	500
17	1000	2000
18	500	3000
19	2000	4000
20	1500	6000
21	4500	6500
22	4500	2000
23	4500	1000
24	5500	500
25	6500	3500
26	6500	2000
27	4500	3000
28	3500	4000
29	4100	3700
30	6400	4200
31	4000	6000
32	3100	5200
33	3500	6900
34	5300	5200
35	6500	5500
36	6300	6500
37	200	6000
38	2000	2000
39	500	500
40	6000	1200
41	4000	2500
42	4200	700
43	2400	1200
44	2300	300
45	1100	1400
46	600	3800
47	200	4800
48	800	5600
49	1300	5200
50	600	6800
51	4700	4700
52	4900	5800
53	2700	4300
54	3700	3100
55	5700	2900
56	6300	2300
57	5300	1200
58	3200	1200
59	3600	2600
60	2100	2400
61	1700	3400
62	1200	2400
63	2400	5800
64	2700	6900
65	1500	7700
66	6200	7700
67	4900	7300
68	6700	500
69	5600	3900
70	3700	4700
71	3700	5600
72	5700	6800
73	4700	1600
74	4400	1700
75	4600	1300
76	4900	1100
77	4900	4200
78	5300	4300
79	6100	5200
80	5700	4800
81	5600	3700
82	5500	5400
83	1500	4700
84	1400	3700
85	1100	3100
86	1600	2200
87	400	1800
88	2800	1800
89	2600	5200
90	2600	3500
91	3100	6700
92	1500	1900
93	2200	2200
94	1800	2400
95	2600	2700
96	2500	2400
97	2200	2700
98	2500	2100
99	1900	2100
100	2000	2600
101	1800	1800
DEMAND_SECTION
1	0
2	10
3	7
4	13
5	19
6	26
7	3
8	5
9	9
10	16
11	16
12	12
13	19
14	23
15	20
16	8
17	19
18	2
19	12
20	17
21	9
22	11
23	18
24	29
25	3
26	6
27	17
28	16
29	16
30	9
31	21
32	27
33	23
34	11
35	14
36	8
37	5
38	8
39	16
40	31
41	9
42	5
43	5
44	7
45	18
46	16
47	1
48	27
49	36
50	30
51	13
52	10
53	9
54	14
55	18
56	2
57	6
58	7
59	18
60	28
61	3
62	13
63	19
64	10
65	9
66	20
67	25
68	25
69	36
70	6
71	5
72	15
73	25
74	9
75	8
76	18
77	13
78	14
79	3
80	23
81	6
82	26
83	16
84	11
85	7
86	41
87	35
88	26
89	9
90	15
91	3
92	1
93	2
94	22
95	27
96	20
97	11
98	12
99	10
100	9
101	17
DEPOT_SECTION
1
-1
EOF
