experiment/data/lkh-res/Vrp-Set-CMT-n101/Vrp-Set-CMT-n101-lkh/3.lkh1.log
PARAMETER_FILE = baseline_results/cvrp_lkh/Vrp-Set-CMT-n101/Vrp-Set-CMT-n101-lkh/3.lkh1.par
Reading PROBLEM_FILE: "baseline_results/cvrp_lkh/Vrp-Set-CMT-n101/Vrp-Set-CMT-n101-lkh/3.lkh1.vrp" ... done
ASCENT_CANDIDATES = 50
BACKBONE_TRIALS = 0
BACKTRACKING = NO
# BWTSP =
# CANDIDATE_FILE =
CANDIDATE_SET_TYPE = ALPHA
# DISTANCE =
DEPOT = 1
# EDGE_FILE =
EXCESS = 0.00990099
EXTERNAL_SALESMEN = 0
EXTRA_CANDIDATES = 0 
EXTRA_CANDIDATE_SET_TYPE = QUADRANT
GAIN23 = NO
GAIN_CRITERION = YES
INITIAL_PERIOD = 100
INITIAL_STEP_SIZE = 1
INITIAL_TOUR_ALGORITHM = WALK
# INITIAL_TOUR_FILE = 
INITIAL_TOUR_FRACTION = 1.000
# INPUT_TOUR_FILE = 
KICK_TYPE = 4
KICKS = 1
# MAX_BREADTH =
MAKESPAN = NO
MAX_CANDIDATES = 5 
MAX_SWAPS = 0
MAX_TRIALS = 10000
# MERGE_TOUR_FILE =
MOVE_TYPE = 5 SPECIAL
MTSP_MIN_SIZE = 1
MTSP_MAX_SIZE = 100
# MTSP_SOLUTION_FILE = 
# NONSEQUENTIAL_MOVE_TYPE = 5
# OPTIMUM =
OUTPUT_TOUR_FILE = baseline_results/cvrp_lkh/Vrp-Set-CMT-n101/Vrp-Set-CMT-n101-lkh/3.lkh1.tour
PATCHING_A = 1 
PATCHING_C = 0 
# PI_FILE = 
POPMUSIC_INITIAL_TOUR = NO
POPMUSIC_MAX_NEIGHBORS = 5
POPMUSIC_SAMPLE_SIZE = 10
POPMUSIC_SOLUTIONS = 50
POPMUSIC_TRIALS = 1
POPULATION_SIZE = 10
PRECISION = 100
PROBLEM_FILE = baseline_results/cvrp_lkh/Vrp-Set-CMT-n101/Vrp-Set-CMT-n101-lkh/3.lkh1.vrp
RECOMBINATION = IPT
RESTRICTED_SEARCH = YES
RUNS = 1
SALESMEN = 8
SCALE = 1
SEED = 1234
# SINTEF_SOLUTION_FILE = 
STOP_AT_OPTIMUM = YES
SUBGRADIENT = YES
# SUBPROBLEM_SIZE =
# SUBPROBLEM_TOUR_FILE = 
SUBSEQUENT_MOVE_TYPE = 5 SPECIAL
SUBSEQUENT_PATCHING = YES
# TIME_LIMIT =
# TOTAL_TIME_LIMIT =
# TOUR_FILE = 
TRACE_LEVEL = 1
VEHICLES = 8

Lower bound = 71838.6, Ascent time = 0.02 sec.
Cand.min = 4, Cand.avg = 5.0, Cand.max = 5
Preprocessing time = 0.02 sec.
* 1: Cost = 0_86672, Time = 0.01 sec. 
Writing OUTPUT_TOUR_FILE: "baseline_results/cvrp_lkh/Vrp-Set-CMT-n101/Vrp-Set-CMT-n101-lkh/3.lkh1.tour" ... done
* 4: Cost = 0_85199, Time = 0.02 sec. 
Writing OUTPUT_TOUR_FILE: "baseline_results/cvrp_lkh/Vrp-Set-CMT-n101/Vrp-Set-CMT-n101-lkh/3.lkh1.tour" ... done
* 5: Cost = 0_84107, Time = 0.02 sec. 
Writing OUTPUT_TOUR_FILE: "baseline_results/cvrp_lkh/Vrp-Set-CMT-n101/Vrp-Set-CMT-n101-lkh/3.lkh1.tour" ... done
* 6: Cost = 0_84100, Time = 0.02 sec. 
Writing OUTPUT_TOUR_FILE: "baseline_results/cvrp_lkh/Vrp-Set-CMT-n101/Vrp-Set-CMT-n101-lkh/3.lkh1.tour" ... done
* 8: Cost = 0_83892, Time = 0.03 sec. 
Writing OUTPUT_TOUR_FILE: "baseline_results/cvrp_lkh/Vrp-Set-CMT-n101/Vrp-Set-CMT-n101-lkh/3.lkh1.tour" ... done
* 14: Cost = 0_83383, Time = 0.04 sec. 
Writing OUTPUT_TOUR_FILE: "baseline_results/cvrp_lkh/Vrp-Set-CMT-n101/Vrp-Set-CMT-n101-lkh/3.lkh1.tour" ... done
* 22: Cost = 0_83277, Time = 0.05 sec. 
Writing OUTPUT_TOUR_FILE: "baseline_results/cvrp_lkh/Vrp-Set-CMT-n101/Vrp-Set-CMT-n101-lkh/3.lkh1.tour" ... done
* 32: Cost = 0_83209, Time = 0.06 sec. 
Writing OUTPUT_TOUR_FILE: "baseline_results/cvrp_lkh/Vrp-Set-CMT-n101/Vrp-Set-CMT-n101-lkh/3.lkh1.tour" ... done
* 34: Cost = 0_83128, Time = 0.06 sec. 
Writing OUTPUT_TOUR_FILE: "baseline_results/cvrp_lkh/Vrp-Set-CMT-n101/Vrp-Set-CMT-n101-lkh/3.lkh1.tour" ... done
* 38: Cost = 0_82902, Time = 0.06 sec. 
Writing OUTPUT_TOUR_FILE: "baseline_results/cvrp_lkh/Vrp-Set-CMT-n101/Vrp-Set-CMT-n101-lkh/3.lkh1.tour" ... done
* 180: Cost = 0_82891, Time = 0.21 sec. 
Writing OUTPUT_TOUR_FILE: "baseline_results/cvrp_lkh/Vrp-Set-CMT-n101/Vrp-Set-CMT-n101-lkh/3.lkh1.tour" ... done
* 198: Cost = 0_82734, Time = 0.24 sec. 
Writing OUTPUT_TOUR_FILE: "baseline_results/cvrp_lkh/Vrp-Set-CMT-n101/Vrp-Set-CMT-n101-lkh/3.lkh1.tour" ... done
Population:
  1: 0_82734
Run 1: Cost = 0_82734, Time = 10.33 sec. 

Successes/Runs = 0/1 
Cost.min = 82734, Cost.avg = 82734.00, Cost.max = 82734
Gap.min = 0.0000%, Gap.avg = 0.0000%, Gap.max = 0.0000%
Penalty.min = 0, Penalty.avg = 0.00, Penalty.max = 0
Trials.min = 10000, Trials.avg = 10000.0, Trials.max = 10000
Time.min = 10.33 sec., Time.avg = 10.33 sec., Time.max = 10.33 sec.
Time.total = 10.35 sec.
  Size.min = 9, Size.max = 16, Penalty = 0
  Cost.min = 5933, Cost.max = 12689, Cost.sum = 82734
Best CVRP solution:
  Cost = 0_82734

